50
    96    10    62    21    69    32    29    99    71    16    48    41    84    79    84     9    81    59    42    36    22     5    66    17    62    84    44    13    45    79     2    54     5    87     6    31    67    21    66     3    47    11    28    95    51   100    84    96    76    51
     6     4     3     1     2     2     3     2     3    10     7     7     3     8     3    10     1     9     1     4     4     2     2     9     7    10    10     8     1    10     2     2     3     5     5     2    10     3    10    10     5     4    10     4     7     6     9     6     4    10
   165    61   178     0     0     0     0     0     0   417     0     0     0   338     8     0     0   389     0     0     0     0   738     0     0   516   620   516   735   179     0   727     0   173   543   457   100   319     0     0   326   553     0   620     0   316   165   159   513   192
